32      4       
19      12      13      20      
0       0       0       0       0       8       2       25      26      27      28      29      30      31      
3       4       0       5       0       1       3       
10      0       6       0       1       2       4       24      
4       0       1       0       1       3       5       22      23      
9       0       0       3       8       1       6       
2       5       0       0       14      2       7       21      
7       5       0       0       15      3       8       19      20      
6       0       2       0       1       2       9       18      
3       3       0       0       13      2       10      17      
6       0       1       1       0       1       11      
2       8       0       2       0       1       12      
1       1       1       0       0       1       13      
1       0       0       1       1       1       14      
6       1       1       0       0       1       15      
1       0       0       6       1       1       16      
10      0       0       1       1       1       32      
10      3       0       0       7       1       32      
7       9       0       0       4       1       32      
8       0       6       1       0       1       32      
7       0       1       1       0       1       32      
8       1       1       0       0       1       32      
9       10      5       0       0       1       32      
4       0       6       8       0       1       32      
10      1       1       0       0       1       32      
4       0       0       7       5       1       32      
9       3       0       0       2       1       32      
3       14      0       1       0       1       32      
8       0       2       0       1       1       32      
5       3       0       5       0       1       32      
2       0       5       1       0       1       32      
6       0       6       6       0       1       32      
0       0       0       0       0       0       
